p cnf 462 320
-28 -48 -58 -71 -103 -113 -126 -147 -160 -176 -222 -234 -277 -284 -332 -341 -389 -396 -439 -451 0
-28 -48 -58 -71 -103 -113 -126 -147 -160 -176 -222 -234 -270 -318 -325 -348 -355 -403 -439 -451 0
-28 -48 -54 -77 -103 -109 -132 -143 -166 -176 -218 -238 -277 -284 -328 -345 -389 -396 -435 -455 0
-28 -48 -54 -77 -103 -109 -132 -143 -166 -176 -218 -238 -274 -318 -325 -348 -355 -399 -435 -455 0
-28 -47 -57 -70 -104 -114 -127 -147 -160 -176 -222 -234 -278 -285 -333 -340 -388 -395 -439 -451 0
-28 -47 -57 -70 -104 -114 -127 -147 -160 -176 -222 -234 -271 -319 -326 -347 -354 -402 -439 -451 0
-28 -47 -53 -76 -104 -110 -133 -143 -166 -176 -218 -238 -278 -285 -329 -344 -388 -395 -435 -455 0
-28 -47 -53 -76 -104 -110 -133 -143 -166 -176 -218 -238 -275 -319 -326 -347 -354 -398 -435 -455 0
-28 -46 -58 -73 -101 -113 -128 -146 -160 -177 -223 -233 -279 -284 -332 -341 -389 -394 -440 -450 0
-28 -46 -58 -73 -101 -113 -128 -146 -160 -177 -223 -233 -270 -318 -323 -350 -355 -403 -440 -450 0
-28 -46 -54 -79 -101 -109 -134 -142 -166 -177 -219 -237 -279 -284 -328 -345 -389 -394 -436 -454 0
-28 -46 -54 -79 -101 -109 -134 -142 -166 -177 -219 -237 -274 -318 -323 -350 -355 -399 -436 -454 0
-28 -45 -57 -72 -102 -114 -129 -146 -160 -177 -223 -233 -280 -285 -333 -340 -388 -393 -440 -450 0
-28 -45 -57 -72 -102 -114 -129 -146 -160 -177 -223 -233 -271 -319 -324 -349 -354 -402 -440 -450 0
-28 -45 -53 -78 -102 -110 -135 -142 -166 -177 -219 -237 -280 -285 -329 -344 -388 -393 -436 -454 0
-28 -45 -53 -78 -102 -110 -135 -142 -166 -177 -219 -237 -275 -319 -324 -349 -354 -398 -436 -454 0
-28 -43 -63 -71 -98 -118 -126 -147 -156 -180 -219 -237 -277 -304 -332 -341 -369 -396 -436 -454 0
-28 -43 -63 -71 -98 -118 -126 -147 -156 -180 -219 -237 -270 -298 -325 -348 -375 -403 -436 -454 0
-28 -43 -61 -73 -98 -116 -128 -146 -157 -180 -218 -238 -279 -304 -332 -341 -369 -394 -435 -455 0
-28 -43 -61 -73 -98 -116 -128 -146 -157 -180 -218 -238 -270 -298 -323 -350 -375 -403 -435 -455 0
-28 -42 -62 -70 -99 -119 -127 -147 -156 -180 -219 -237 -278 -305 -333 -340 -368 -395 -436 -454 0
-28 -42 -62 -70 -99 -119 -127 -147 -156 -180 -219 -237 -271 -299 -326 -347 -374 -402 -436 -454 0
-28 -42 -60 -72 -99 -117 -129 -146 -157 -180 -218 -238 -280 -305 -333 -340 -368 -393 -435 -455 0
-28 -42 -60 -72 -99 -117 -129 -146 -157 -180 -218 -238 -271 -299 -324 -349 -374 -402 -435 -455 0
-28 -39 -63 -77 -94 -118 -132 -143 -156 -186 -223 -233 -277 -304 -328 -345 -369 -396 -440 -450 0
-28 -39 -63 -77 -94 -118 -132 -143 -156 -186 -223 -233 -274 -298 -325 -348 -375 -399 -440 -450 0
-28 -39 -61 -79 -94 -116 -134 -142 -157 -186 -222 -234 -279 -304 -328 -345 -369 -394 -439 -451 0
-28 -39 -61 -79 -94 -116 -134 -142 -157 -186 -222 -234 -274 -298 -323 -350 -375 -399 -439 -451 0
-28 -38 -62 -76 -95 -119 -133 -143 -156 -186 -223 -233 -278 -305 -329 -344 -368 -395 -440 -450 0
-28 -38 -62 -76 -95 -119 -133 -143 -156 -186 -223 -233 -275 -299 -326 -347 -374 -398 -440 -450 0
-28 -38 -60 -78 -95 -117 -135 -142 -157 -186 -222 -234 -280 -305 -329 -344 -368 -393 -439 -451 0
-28 -38 -60 -78 -95 -117 -135 -142 -157 -186 -222 -234 -275 -299 -324 -349 -374 -398 -439 -451 0
-27 -43 -54 -83 -97 -108 -137 -141 -167 -181 -220 -237 -279 -286 -325 -348 -387 -394 -436 -453 0
-27 -43 -54 -83 -97 -108 -137 -141 -167 -181 -218 -239 -279 -312 -325 -348 -361 -394 -434 -455 0
-27 -41 -52 -81 -99 -110 -139 -141 -167 -181 -220 -237 -278 -317 -324 -349 -356 -395 -436 -453 0
-27 -41 -52 -81 -99 -110 -139 -141 -167 -181 -218 -239 -278 -291 -324 -349 -382 -395 -434 -455 0
-27 -39 -58 -83 -93 -112 -137 -141 -161 -187 -224 -233 -279 -292 -325 -348 -381 -394 -440 -449 0
-27 -39 -58 -83 -93 -112 -137 -141 -161 -187 -222 -235 -279 -306 -325 -348 -367 -394 -438 -451 0
-27 -37 -56 -81 -95 -114 -139 -141 -161 -187 -224 -233 -278 -311 -324 -349 -362 -395 -440 -449 0
-27 -37 -56 -81 -95 -114 -139 -141 -161 -187 -222 -235 -278 -297 -324 -349 -376 -395 -438 -451 0
-26 -42 -53 -83 -97 -108 -138 -141 -168 -182 -221 -237 -280 -286 -326 -347 -387 -393 -436 -452 0
-26 -42 -53 -83 -97 -108 -138 -141 -168 -182 -218 -240 -280 -312 -326 -347 -361 -393 -433 -455 0
-26 -41 -52 -82 -98 -109 -139 -141 -168 -182 -221 -237 -277 -317 -323 -350 -356 -396 -436 -452 0
-26 -41 -52 -82 -98 -109 -139 -141 -168 -182 -218 -240 -277 -291 -323 -350 -382 -396 -433 -455 0
-26 -38 -57 -83 -93 -112 -138 -141 -162 -188 -225 -233 -280 -292 -326 -347 -381 -393 -440 -448 0
-26 -38 -57 -83 -93 -112 -138 -141 -162 -188 -222 -236 -280 -306 -326 -347 -367 -393 -437 -451 0
-26 -37 -56 -82 -94 -113 -139 -141 -162 -188 -225 -233 -277 -311 -323 -350 -362 -396 -440 -448 0
-26 -37 -56 -82 -94 -113 -139 -141 -162 -188 -222 -236 -277 -297 -323 -350 -376 -396 -437 -451 0
-25 -43 -54 -84 -96 -107 -137 -141 -169 -183 -220 -238 -277 -286 -323 -350 -387 -396 -435 -453 0
-25 -43 -54 -84 -96 -107 -137 -141 -169 -183 -219 -239 -277 -312 -323 -350 -361 -396 -434 -454 0
-25 -40 -51 -81 -99 -110 -140 -141 -169 -183 -220 -238 -280 -317 -326 -347 -356 -393 -435 -453 0
-25 -40 -51 -81 -99 -110 -140 -141 -169 -183 -219 -239 -280 -291 -326 -347 -382 -393 -434 -454 0
-25 -39 -58 -84 -92 -111 -137 -141 -163 -189 -224 -234 -277 -292 -323 -350 -381 -396 -439 -449 0
-25 -39 -58 -84 -92 -111 -137 -141 -163 -189 -223 -235 -277 -306 -323 -350 -367 -396 -438 -450 0
-25 -36 -55 -81 -95 -114 -140 -141 -163 -189 -224 -234 -280 -311 -326 -347 -362 -393 -439 -449 0
-25 -36 -55 -81 -95 -114 -140 -141 -163 -189 -223 -235 -280 -297 -326 -347 -376 -393 -438 -450 0
-24 -42 -53 -84 -96 -107 -138 -141 -170 -184 -221 -238 -278 -286 -324 -349 -387 -395 -435 -452 0
-24 -42 -53 -84 -96 -107 -138 -141 -170 -184 -219 -240 -278 -312 -324 -349 -361 -395 -433 -454 0
-24 -40 -51 -82 -98 -109 -140 -141 -170 -184 -221 -238 -279 -317 -325 -348 -356 -394 -435 -452 0
-24 -40 -51 -82 -98 -109 -140 -141 -170 -184 -219 -240 -279 -291 -325 -348 -382 -394 -433 -454 0
-24 -38 -57 -84 -92 -111 -138 -141 -164 -190 -225 -234 -278 -292 -324 -349 -381 -395 -439 -448 0
-24 -38 -57 -84 -92 -111 -138 -141 -164 -190 -223 -236 -278 -306 -324 -349 -367 -395 -437 -450 0
-24 -36 -55 -82 -94 -113 -140 -141 -164 -190 -225 -234 -279 -311 -325 -348 -362 -394 -439 -448 0
-24 -36 -55 -82 -94 -113 -140 -141 -164 -190 -223 -236 -279 -297 -325 -348 -376 -394 -437 -450 0
-23 -48 -56 -72 -102 -111 -126 -149 -165 -178 -224 -236 -277 -282 -334 -339 -391 -396 -437 -449 0
-23 -48 -56 -72 -102 -111 -126 -149 -165 -178 -224 -236 -268 -320 -324 -349 -353 -405 -437 -449 0
-23 -48 -52 -78 -102 -107 -132 -145 -171 -178 -220 -240 -277 -282 -330 -343 -391 -396 -433 -453 0
-23 -48 -52 -78 -102 -107 -132 -145 -171 -178 -220 -240 -272 -320 -324 -349 -353 -401 -433 -453 0
-23 -47 -56 -73 -101 -111 -127 -148 -165 -179 -225 -235 -278 -282 -334 -339 -391 -395 -438 -448 0
-23 -47 -56 -73 -101 -111 -127 -148 -165 -179 -225 -235 -268 -320 -323 -350 -353 -405 -438 -448 0
-23 -47 -52 -79 -101 -107 -133 -144 -171 -179 -221 -239 -278 -282 -330 -343 -391 -395 -434 -452 0
-23 -47 -52 -79 -101 -107 -133 -144 -171 -179 -221 -239 -272 -320 -323 -350 -353 -401 -434 -452 0
-23 -46 -55 -70 -104 -112 -128 -149 -165 -178 -224 -236 -279 -283 -335 -338 -390 -394 -437 -449 0
-23 -46 -55 -70 -104 -112 -128 -149 -165 -178 -224 -236 -269 -321 -326 -347 -352 -404 -437 -449 0
-23 -46 -51 -76 -104 -108 -134 -145 -171 -178 -220 -240 -279 -283 -331 -342 -390 -394 -433 -453 0
-23 -46 -51 -76 -104 -108 -134 -145 -171 -178 -220 -240 -273 -321 -326 -347 -352 -400 -433 -453 0
-23 -45 -55 -71 -103 -112 -129 -148 -165 -179 -225 -235 -280 -283 -335 -338 -390 -393 -438 -448 0
-23 -45 -55 -71 -103 -112 -129 -148 -165 -179 -225 -235 -269 -321 -325 -348 -352 -404 -438 -448 0
-23 -45 -51 -77 -103 -108 -135 -144 -171 -179 -221 -239 -280 -283 -331 -342 -390 -393 -434 -452 0
-23 -45 -51 -77 -103 -108 -135 -144 -171 -179 -221 -239 -273 -321 -325 -348 -352 -400 -434 -452 0
-23 -41 -63 -72 -96 -117 -126 -149 -158 -185 -221 -239 -277 -302 -334 -339 -371 -396 -434 -452 0
-23 -41 -63 -72 -96 -117 -126 -149 -158 -185 -221 -239 -268 -300 -324 -349 -373 -405 -434 -452 0
-23 -41 -62 -73 -96 -116 -127 -148 -159 -185 -220 -240 -278 -302 -334 -339 -371 -395 -433 -453 0
-23 -41 -62 -73 -96 -116 -127 -148 -159 -185 -220 -240 -268 -300 -323 -350 -373 -405 -433 -453 0
-23 -40 -61 -70 -97 -119 -128 -149 -158 -185 -221 -239 -279 -303 -335 -338 -370 -394 -434 -452 0
-23 -40 -61 -70 -97 -119 -128 -149 -158 -185 -221 -239 -269 -301 -326 -347 -372 -404 -434 -452 0
-23 -40 -60 -71 -97 -118 -129 -148 -159 -185 -220 -240 -280 -303 -335 -338 -370 -393 -433 -453 0
-23 -40 -60 -71 -97 -118 -129 -148 -159 -185 -220 -240 -269 -301 -325 -348 -372 -404 -433 -453 0
-23 -37 -63 -78 -92 -117 -132 -145 -158 -191 -225 -235 -277 -302 -330 -343 -371 -396 -438 -448 0
-23 -37 -63 -78 -92 -117 -132 -145 -158 -191 -225 -235 -272 -300 -324 -349 -373 -401 -438 -448 0
-23 -37 -62 -79 -92 -116 -133 -144 -159 -191 -224 -236 -278 -302 -330 -343 -371 -395 -437 -449 0
-23 -37 -62 -79 -92 -116 -133 -144 -159 -191 -224 -236 -272 -300 -323 -350 -373 -401 -437 -449 0
-23 -36 -61 -76 -93 -119 -134 -145 -158 -191 -225 -235 -279 -303 -331 -342 -370 -394 -438 -448 0
-23 -36 -61 -76 -93 -119 -134 -145 -158 -191 -225 -235 -273 -301 -326 -347 -372 -400 -438 -448 0
-23 -36 -60 -77 -93 -118 -135 -144 -159 -191 -224 -236 -280 -303 -331 -342 -370 -393 -437 -449 0
-23 -36 -60 -77 -93 -118 -135 -144 -159 -191 -224 -236 -273 -301 -325 -348 -372 -400 -437 -449 0
-22 -48 -61 -74 -97 -111 -123 -150 -163 -181 -227 -234 -274 -282 -332 -341 -391 -399 -439 -446 0
-22 -48 -61 -74 -97 -111 -123 -150 -163 -181 -218 -244 -274 -303 -332 -341 -370 -399 -429 -455 0
-22 -46 -63 -74 -96 -112 -123 -150 -161 -183 -229 -233 -274 -283 -332 -341 -390 -399 -440 -444 0
-22 -46 -63 -74 -96 -112 -123 -150 -161 -183 -219 -242 -274 -302 -332 -341 -371 -399 -431 -454 0
-22 -41 -55 -67 -104 -117 -130 -150 -163 -181 -227 -234 -271 -321 -329 -344 -352 -402 -439 -446 0
-22 -41 -55 -67 -104 -117 -130 -150 -163 -181 -218 -244 -271 -300 -329 -344 -373 -402 -429 -455 0
-22 -40 -56 -67 -102 -119 -130 -150 -161 -183 -229 -233 -271 -320 -329 -344 -353 -402 -440 -444 0
-22 -40 -56 -67 -102 -119 -130 -150 -161 -183 -219 -242 -271 -301 -329 -344 -372 -402 -431 -454 0
-21 -47 -60 -74 -97 -111 -124 -150 -164 -182 -228 -234 -275 -282 -333 -340 -391 -398 -439 -445 0
-21 -47 -60 -74 -97 -111 -124 -150 -164 -182 -218 -245 -275 -303 -333 -340 -370 -398 -428 -455 0
-21 -45 -62 -74 -96 -112 -124 -150 -162 -184 -230 -233 -275 -283 -333 -340 -390 -398 -440 -443 0
-21 -45 -62 -74 -96 -112 -124 -150 -162 -184 -219 -243 -275 -302 -333 -340 -371 -398 -430 -454 0
-21 -41 -55 -68 -103 -116 -130 -150 -164 -182 -228 -234 -270 -321 -328 -345 -352 -403 -439 -445 0
-21 -41 -55 -68 -103 -116 -130 -150 -164 -182 -218 -245 -270 -300 -328 -345 -373 -403 -428 -455 0
-21 -40 -56 -68 -101 -118 -130 -150 -162 -184 -230 -233 -270 -320 -328 -345 -353 -403 -440 -443 0
-21 -40 -56 -68 -101 -118 -130 -150 -162 -184 -219 -243 -270 -301 -328 -345 -372 -403 -430 -454 0
-20 -48 -62 -69 -99 -113 -121 -155 -162 -181 -227 -236 -272 -284 -334 -339 -389 -401 -437 -446 0
-20 -48 -62 -69 -99 -113 -121 -155 -162 -181 -220 -243 -272 -305 -334 -339 -368 -401 -430 -453 0
-20 -47 -63 -69 -98 -114 -121 -155 -161 -182 -228 -235 -272 -285 -334 -339 -388 -401 -438 -445 0
-20 -47 -63 -69 -98 -114 -121 -155 -161 -182 -221 -242 -272 -304 -334 -339 -369 -401 -431 -452 0
-20 -43 -57 -65 -104 -118 -125 -155 -162 -181 -227 -236 -269 -319 -331 -342 -354 -404 -437 -446 0
-20 -43 -57 -65 -104 -118 -125 -155 -162 -181 -220 -243 -269 -298 -331 -342 -375 -404 -430 -453 0
-20 -42 -58 -65 -103 -119 -125 -155 -161 -182 -228 -235 -269 -318 -331 -342 -355 -404 -438 -445 0
-20 -42 -58 -65 -103 -119 -125 -155 -161 -182 -221 -242 -269 -299 -331 -342 -374 -404 -431 -452 0
-19 -46 -60 -69 -99 -113 -122 -155 -164 -183 -229 -236 -273 -284 -335 -338 -389 -400 -437 -444 0
-19 -46 -60 -69 -99 -113 -122 -155 -164 -183 -220 -245 -273 -305 -335 -338 -368 -400 -428 -453 0
-19 -45 -61 -69 -98 -114 -122 -155 -163 -184 -230 -235 -273 -285 -335 -338 -388 -400 -438 -443 0
-19 -45 -61 -69 -98 -114 -122 -155 -163 -184 -221 -244 -273 -304 -335 -338 -369 -400 -429 -452 0
-19 -43 -57 -66 -102 -116 -125 -155 -164 -183 -229 -236 -268 -319 -330 -343 -354 -405 -437 -444 0
-19 -43 -57 -66 -102 -116 -125 -155 -164 -183 -220 -245 -268 -298 -330 -343 -375 -405 -428 -453 0
-19 -42 -58 -66 -101 -117 -125 -155 -163 -184 -230 -235 -268 -318 -330 -343 -355 -405 -438 -443 0
-19 -42 -58 -66 -101 -117 -125 -155 -163 -184 -221 -244 -268 -299 -330 -343 -374 -405 -429 -452 0
-18 -48 -61 -80 -93 -107 -123 -150 -169 -187 -227 -238 -270 -282 -328 -345 -391 -403 -435 -446 0
-18 -48 -61 -80 -93 -107 -123 -150 -169 -187 -222 -244 -270 -303 -328 -345 -370 -403 -429 -451 0
-18 -46 -63 -80 -92 -108 -123 -150 -167 -189 -229 -237 -270 -283 -328 -345 -390 -403 -436 -444 0
-18 -46 -63 -80 -92 -108 -123 -150 -167 -189 -223 -242 -270 -302 -328 -345 -371 -403 -431 -450 0
-18 -37 -51 -67 -104 -117 -136 -150 -169 -187 -227 -238 -275 -321 -333 -340 -352 -398 -435 -446 0
-18 -37 -51 -67 -104 -117 -136 -150 -169 -187 -222 -244 -275 -300 -333 -340 -373 -398 -429 -451 0
-18 -36 -52 -67 -102 -119 -136 -150 -167 -189 -229 -237 -275 -320 -333 -340 -353 -398 -436 -444 0
-18 -36 -52 -67 -102 -119 -136 -150 -167 -189 -223 -242 -275 -301 -333 -340 -372 -398 -431 -450 0
-17 -47 -60 -80 -93 -107 -124 -150 -170 -188 -228 -238 -271 -282 -329 -344 -391 -402 -435 -445 0
-17 -47 -60 -80 -93 -107 -124 -150 -170 -188 -222 -245 -271 -303 -329 -344 -370 -402 -428 -451 0
-17 -45 -62 -80 -92 -108 -124 -150 -168 -190 -230 -237 -271 -283 -329 -344 -390 -402 -436 -443 0
-17 -45 -62 -80 -92 -108 -124 -150 -168 -190 -223 -243 -271 -302 -329 -344 -371 -402 -430 -450 0
-17 -37 -51 -68 -103 -116 -136 -150 -170 -188 -228 -238 -274 -321 -332 -341 -352 -399 -435 -445 0
-17 -37 -51 -68 -103 -116 -136 -150 -170 -188 -222 -245 -274 -300 -332 -341 -373 -399 -428 -451 0
-17 -36 -52 -68 -101 -118 -136 -150 -168 -190 -230 -237 -274 -320 -332 -341 -353 -399 -436 -443 0
-17 -36 -52 -68 -101 -118 -136 -150 -168 -190 -223 -243 -274 -301 -332 -341 -372 -399 -430 -450 0
-16 -48 -62 -75 -95 -109 -121 -155 -168 -187 -227 -240 -268 -284 -330 -343 -389 -405 -433 -446 0
-16 -48 -62 -75 -95 -109 -121 -155 -168 -187 -224 -243 -268 -305 -330 -343 -368 -405 -430 -449 0
-16 -47 -63 -75 -94 -110 -121 -155 -167 -188 -228 -239 -268 -285 -330 -343 -388 -405 -434 -445 0
-16 -47 -63 -75 -94 -110 -121 -155 -167 -188 -225 -242 -268 -304 -330 -343 -369 -405 -431 -448 0
-16 -39 -53 -65 -104 -118 -131 -155 -168 -187 -227 -240 -273 -319 -335 -338 -354 -400 -433 -446 0
-16 -39 -53 -65 -104 -118 -131 -155 -168 -187 -224 -243 -273 -298 -335 -338 -375 -400 -430 -449 0
-16 -38 -54 -65 -103 -119 -131 -155 -167 -188 -228 -239 -273 -318 -335 -338 -355 -400 -434 -445 0
-16 -38 -54 -65 -103 -119 -131 -155 -167 -188 -225 -242 -273 -299 -335 -338 -374 -400 -431 -448 0
-15 -46 -60 -75 -95 -109 -122 -155 -170 -189 -229 -240 -269 -284 -331 -342 -389 -404 -433 -444 0
-15 -46 -60 -75 -95 -109 -122 -155 -170 -189 -224 -245 -269 -305 -331 -342 -368 -404 -428 -449 0
-15 -45 -61 -75 -94 -110 -122 -155 -169 -190 -230 -239 -269 -285 -331 -342 -388 -404 -434 -443 0
-15 -45 -61 -75 -94 -110 -122 -155 -169 -190 -225 -244 -269 -304 -331 -342 -369 -404 -429 -448 0
-15 -39 -53 -66 -102 -116 -131 -155 -170 -189 -229 -240 -272 -319 -334 -339 -354 -401 -433 -444 0
-15 -39 -53 -66 -102 -116 -131 -155 -170 -189 -224 -245 -272 -298 -334 -339 -375 -401 -428 -449 0
-15 -38 -54 -66 -101 -117 -131 -155 -169 -190 -230 -239 -272 -318 -334 -339 -355 -401 -434 -443 0
-15 -38 -54 -66 -101 -117 -131 -155 -169 -190 -225 -244 -272 -299 -334 -339 -374 -401 -429 -448 0
-14 -43 -56 -76 -95 -108 -126 -154 -174 -192 -229 -243 -270 -286 -331 -342 -387 -403 -430 -444 0
-14 -43 -56 -76 -95 -108 -126 -154 -174 -192 -229 -243 -268 -311 -329 -344 -362 -405 -430 -444 0
-14 -43 -55 -78 -95 -107 -128 -152 -175 -192 -227 -245 -270 -286 -330 -343 -387 -403 -428 -446 0
-14 -43 -55 -78 -95 -107 -128 -152 -175 -192 -227 -245 -269 -311 -329 -344 -362 -404 -428 -446 0
-14 -42 -56 -77 -94 -108 -127 -153 -174 -193 -230 -242 -271 -286 -331 -342 -387 -402 -431 -443 0
-14 -42 -56 -77 -94 -108 -127 -153 -174 -193 -230 -242 -268 -311 -328 -345 -362 -405 -431 -443 0
-14 -42 -55 -79 -94 -107 -129 -151 -175 -193 -228 -244 -271 -286 -330 -343 -387 -402 -429 -445 0
-14 -42 -55 -79 -94 -107 -129 -151 -175 -193 -228 -244 -269 -311 -328 -345 -362 -404 -429 -445 0
-14 -41 -58 -76 -93 -110 -126 -154 -172 -194 -228 -244 -270 -306 -331 -342 -367 -403 -429 -445 0
-14 -41 -58 -76 -93 -110 -126 -154 -172 -194 -228 -244 -268 -291 -329 -344 -382 -405 -429 -445 0
-14 -41 -57 -77 -93 -109 -127 -153 -173 -194 -227 -245 -271 -306 -331 -342 -367 -402 -428 -446 0
-14 -41 -57 -77 -93 -109 -127 -153 -173 -194 -227 -245 -268 -291 -328 -345 -382 -405 -428 -446 0
-14 -40 -58 -78 -92 -110 -128 -152 -172 -195 -230 -242 -270 -306 -330 -343 -367 -403 -431 -443 0
-14 -40 -58 -78 -92 -110 -128 -152 -172 -195 -230 -242 -269 -291 -329 -344 -382 -404 -431 -443 0
-14 -40 -57 -79 -92 -109 -129 -151 -173 -195 -229 -243 -271 -306 -330 -343 -367 -402 -430 -444 0
-14 -40 -57 -79 -92 -109 -129 -151 -173 -195 -229 -243 -269 -291 -328 -345 -382 -404 -430 -444 0
-14 -39 -52 -70 -99 -112 -132 -154 -174 -192 -229 -243 -274 -292 -335 -338 -381 -399 -430 -444 0
-14 -39 -52 -70 -99 -112 -132 -154 -174 -192 -229 -243 -272 -317 -333 -340 -356 -401 -430 -444 0
-14 -39 -51 -72 -99 -111 -134 -152 -175 -192 -227 -245 -274 -292 -334 -339 -381 -399 -428 -446 0
-14 -39 -51 -72 -99 -111 -134 -152 -175 -192 -227 -245 -273 -317 -333 -340 -356 -400 -428 -446 0
-14 -38 -52 -71 -98 -112 -133 -153 -174 -193 -230 -242 -275 -292 -335 -338 -381 -398 -431 -443 0
-14 -38 -52 -71 -98 -112 -133 -153 -174 -193 -230 -242 -272 -317 -332 -341 -356 -401 -431 -443 0
-14 -38 -51 -73 -98 -111 -135 -151 -175 -193 -228 -244 -275 -292 -334 -339 -381 -398 -429 -445 0
-14 -38 -51 -73 -98 -111 -135 -151 -175 -193 -228 -244 -273 -317 -332 -341 -356 -400 -429 -445 0
-14 -37 -54 -70 -97 -114 -132 -154 -172 -194 -228 -244 -274 -312 -335 -338 -361 -399 -429 -445 0
-14 -37 -54 -70 -97 -114 -132 -154 -172 -194 -228 -244 -272 -297 -333 -340 -376 -401 -429 -445 0
-14 -37 -53 -71 -97 -113 -133 -153 -173 -194 -227 -245 -275 -312 -335 -338 -361 -398 -428 -446 0
-14 -37 -53 -71 -97 -113 -133 -153 -173 -194 -227 -245 -272 -297 -332 -341 -376 -401 -428 -446 0
-14 -36 -54 -72 -96 -114 -134 -152 -172 -195 -230 -242 -274 -312 -334 -339 -361 -399 -431 -443 0
-14 -36 -54 -72 -96 -114 -134 -152 -172 -195 -230 -242 -273 -297 -333 -340 -376 -400 -431 -443 0
-14 -36 -53 -73 -96 -113 -135 -151 -173 -195 -229 -243 -275 -312 -334 -339 -361 -398 -430 -444 0
-14 -36 -53 -73 -96 -113 -135 -151 -173 -195 -229 -243 -273 -297 -332 -341 -376 -400 -430 -444 0
-13 -49 -73 -77 -89 -108 -111 -163 -167 -196 -223 -252 -268 -304 -318 -355 -369 -405 -421 -450 0
-13 -49 -73 -77 -89 -108 -111 -163 -167 -196 -218 -260 -273 -304 -318 -355 -369 -400 -413 -455 0
-13 -49 -71 -79 -89 -107 -112 -161 -169 -196 -222 -254 -269 -304 -318 -355 -369 -404 -419 -451 0
-13 -49 -71 -79 -89 -107 -112 -161 -169 -196 -219 -258 -272 -304 -318 -355 -369 -401 -415 -454 0
-13 -33 -52 -55 -105 -129 -133 -163 -167 -196 -223 -252 -285 -299 -335 -338 -374 -388 -421 -450 0
-13 -33 -52 -55 -105 -129 -133 -163 -167 -196 -218 -260 -285 -299 -330 -343 -374 -388 -413 -455 0
-13 -33 -51 -56 -105 -127 -135 -161 -169 -196 -222 -254 -285 -299 -334 -339 -374 -388 -419 -451 0
-13 -33 -51 -56 -105 -127 -135 -161 -169 -196 -219 -258 -285 -299 -331 -342 -374 -388 -415 -454 0
-12 -49 -72 -76 -90 -108 -111 -164 -168 -196 -223 -253 -268 -305 -319 -354 -368 -405 -420 -450 0
-12 -49 -72 -76 -90 -108 -111 -164 -168 -196 -218 -261 -273 -305 -319 -354 -368 -400 -412 -455 0
-12 -49 -70 -78 -90 -107 -112 -162 -170 -196 -222 -255 -269 -305 -319 -354 -368 -404 -418 -451 0
-12 -49 -70 -78 -90 -107 -112 -162 -170 -196 -219 -259 -272 -305 -319 -354 -368 -401 -414 -454 0
-12 -34 -52 -55 -105 -128 -132 -164 -168 -196 -223 -253 -284 -298 -335 -338 -375 -389 -420 -450 0
-12 -34 -52 -55 -105 -128 -132 -164 -168 -196 -218 -261 -284 -298 -330 -343 -375 -389 -412 -455 0
-12 -34 -51 -56 -105 -126 -134 -162 -170 -196 -222 -255 -284 -298 -334 -339 -375 -389 -418 -451 0
-12 -34 -51 -56 -105 -126 -134 -162 -170 -196 -219 -259 -284 -298 -331 -342 -375 -389 -414 -454 0
-11 -44 -73 -78 -87 -110 -113 -162 -167 -201 -225 -252 -270 -302 -320 -353 -371 -403 -421 -448 0
-11 -44 -73 -78 -87 -110 -113 -162 -167 -201 -220 -259 -275 -302 -320 -353 -371 -398 -414 -453 0
-11 -44 -72 -79 -87 -109 -114 -161 -168 -201 -224 -253 -271 -302 -320 -353 -371 -402 -420 -449 0
-11 -44 -72 -79 -87 -109 -114 -161 -168 -201 -221 -258 -274 -302 -320 -353 -371 -399 -415 -452 0
-11 -31 -54 -57 -100 -129 -134 -162 -167 -201 -225 -252 -283 -301 -333 -340 -372 -390 -421 -448 0
-11 -31 -54 -57 -100 -129 -134 -162 -167 -201 -220 -259 -283 -301 -328 -345 -372 -390 -414 -453 0
-11 -31 -53 -58 -100 -128 -135 -161 -168 -201 -224 -253 -283 -301 -332 -341 -372 -390 -420 -449 0
-11 -31 -53 -58 -100 -128 -135 -161 -168 -201 -221 -258 -283 -301 -329 -344 -372 -390 -415 -452 0
-10 -44 -71 -76 -88 -110 -113 -164 -169 -201 -225 -254 -270 -303 -321 -352 -370 -403 -419 -448 0
-10 -44 -71 -76 -88 -110 -113 -164 -169 -201 -220 -261 -275 -303 -321 -352 -370 -398 -412 -453 0
-10 -44 -70 -77 -88 -109 -114 -163 -170 -201 -224 -255 -271 -303 -321 -352 -370 -402 -418 -449 0
-10 -44 -70 -77 -88 -109 -114 -163 -170 -201 -221 -260 -274 -303 -321 -352 -370 -399 -413 -452 0
-10 -32 -54 -57 -100 -127 -132 -164 -169 -201 -225 -254 -282 -300 -333 -340 -373 -391 -419 -448 0
-10 -32 -54 -57 -100 -127 -132 -164 -169 -201 -220 -261 -282 -300 -328 -345 -373 -391 -412 -453 0
-10 -32 -53 -58 -100 -126 -133 -163 -170 -201 -224 -255 -282 -300 -332 -341 -373 -391 -418 -449 0
-10 -32 -53 -58 -100 -126 -133 -163 -170 -201 -221 -260 -282 -300 -329 -344 -373 -391 -413 -452 0
-9 -35 -77 -78 -85 -117 -118 -162 -163 -210 -230 -252 -277 -306 -311 -362 -367 -396 -421 -443 0
-9 -35 -77 -78 -85 -117 -118 -162 -163 -210 -227 -255 -280 -306 -311 -362 -367 -393 -418 -446 0
-9 -35 -76 -79 -85 -116 -119 -161 -164 -210 -229 -253 -278 -306 -311 -362 -367 -395 -420 -444 0
-9 -35 -76 -79 -85 -116 -119 -161 -164 -210 -228 -254 -279 -306 -311 -362 -367 -394 -419 -445 0
-9 -29 -61 -62 -91 -133 -134 -162 -163 -210 -230 -252 -292 -297 -326 -347 -376 -381 -421 -443 0
-9 -29 -61 -62 -91 -133 -134 -162 -163 -210 -227 -255 -292 -297 -323 -350 -376 -381 -418 -446 0
-9 -29 -60 -63 -91 -132 -135 -161 -164 -210 -229 -253 -292 -297 -325 -348 -376 -381 -420 -444 0
-9 -29 -60 -63 -91 -132 -135 -161 -164 -210 -228 -254 -292 -297 -324 -349 -376 -381 -419 -445 0
-8 -35 -71 -72 -86 -117 -118 -168 -169 -210 -230 -258 -277 -312 -317 -356 -361 -396 -415 -443 0
-8 -35 -71 -72 -86 -117 -118 -168 -169 -210 -227 -261 -280 -312 -317 -356 -361 -393 -412 -446 0
-8 -35 -70 -73 -86 -116 -119 -167 -170 -210 -229 -259 -278 -312 -317 -356 -361 -395 -414 -444 0
-8 -35 -70 -73 -86 -116 -119 -167 -170 -210 -228 -260 -279 -312 -317 -356 -361 -394 -413 -445 0
-8 -30 -61 -62 -91 -127 -128 -168 -169 -210 -230 -258 -286 -291 -326 -347 -382 -387 -415 -443 0
-8 -30 -61 -62 -91 -127 -128 -168 -169 -210 -227 -261 -286 -291 -323 -350 -382 -387 -412 -446 0
-8 -30 -60 -63 -91 -126 -129 -167 -170 -210 -229 -259 -286 -291 -325 -348 -382 -387 -414 -444 0
-8 -30 -60 -63 -91 -126 -129 -167 -170 -210 -228 -260 -286 -291 -324 -349 -382 -387 -413 -445 0
-7 -64 -73 -77 -89 -93 -96 -183 -187 -196 -238 -252 -268 -284 -298 -375 -389 -405 -421 -435 0
-7 -64 -73 -77 -89 -93 -96 -183 -187 -196 -233 -260 -273 -284 -298 -375 -389 -400 -413 -440 0
-7 -64 -71 -79 -89 -92 -97 -181 -189 -196 -237 -254 -269 -284 -298 -375 -389 -404 -419 -436 0
-7 -64 -71 -79 -89 -92 -97 -181 -189 -196 -234 -258 -272 -284 -298 -375 -389 -401 -415 -439 0
-7 -33 -37 -40 -120 -129 -133 -183 -187 -196 -238 -252 -305 -319 -335 -338 -354 -368 -421 -435 0
-7 -33 -37 -40 -120 -129 -133 -183 -187 -196 -233 -260 -305 -319 -330 -343 -354 -368 -413 -440 0
-7 -33 -36 -41 -120 -127 -135 -181 -189 -196 -237 -254 -305 -319 -334 -339 -354 -368 -419 -436 0
-7 -33 -36 -41 -120 -127 -135 -181 -189 -196 -234 -258 -305 -319 -331 -342 -354 -368 -415 -439 0
-6 -64 -72 -76 -90 -93 -96 -184 -188 -196 -238 -253 -268 -285 -299 -374 -388 -405 -420 -435 0
-6 -64 -72 -76 -90 -93 -96 -184 -188 -196 -233 -261 -273 -285 -299 -374 -388 -400 -412 -440 0
-6 -64 -70 -78 -90 -92 -97 -182 -190 -196 -237 -255 -269 -285 -299 -374 -388 -404 -418 -436 0
-6 -64 -70 -78 -90 -92 -97 -182 -190 -196 -234 -259 -272 -285 -299 -374 -388 -401 -414 -439 0
-6 -34 -37 -40 -120 -128 -132 -184 -188 -196 -238 -253 -304 -318 -335 -338 -355 -369 -420 -435 0
-6 -34 -37 -40 -120 -128 -132 -184 -188 -196 -233 -261 -304 -318 -330 -343 -355 -369 -412 -440 0
-6 -34 -36 -41 -120 -126 -134 -182 -190 -196 -237 -255 -304 -318 -334 -339 -355 -369 -418 -436 0
-6 -34 -36 -41 -120 -126 -134 -182 -190 -196 -234 -259 -304 -318 -331 -342 -355 -369 -414 -439 0
-5 -59 -73 -78 -87 -95 -98 -182 -187 -201 -240 -252 -270 -282 -300 -373 -391 -403 -421 -433 0
-5 -59 -73 -78 -87 -95 -98 -182 -187 -201 -235 -259 -275 -282 -300 -373 -391 -398 -414 -438 0
-5 -59 -72 -79 -87 -94 -99 -181 -188 -201 -239 -253 -271 -282 -300 -373 -391 -402 -420 -434 0
-5 -59 -72 -79 -87 -94 -99 -181 -188 -201 -236 -258 -274 -282 -300 -373 -391 -399 -415 -437 0
-5 -31 -39 -42 -115 -129 -134 -182 -187 -201 -240 -252 -303 -321 -333 -340 -352 -370 -421 -433 0
-5 -31 -39 -42 -115 -129 -134 -182 -187 -201 -235 -259 -303 -321 -328 -345 -352 -370 -414 -438 0
-5 -31 -38 -43 -115 -128 -135 -181 -188 -201 -239 -253 -303 -321 -332 -341 -352 -370 -420 -434 0
-5 -31 -38 -43 -115 -128 -135 -181 -188 -201 -236 -258 -303 -321 -329 -344 -352 -370 -415 -437 0
-4 -59 -71 -76 -88 -95 -98 -184 -189 -201 -240 -254 -270 -283 -301 -372 -390 -403 -419 -433 0
-4 -59 -71 -76 -88 -95 -98 -184 -189 -201 -235 -261 -275 -283 -301 -372 -390 -398 -412 -438 0
-4 -59 -70 -77 -88 -94 -99 -183 -190 -201 -239 -255 -271 -283 -301 -372 -390 -402 -418 -434 0
-4 -59 -70 -77 -88 -94 -99 -183 -190 -201 -236 -260 -274 -283 -301 -372 -390 -399 -413 -437 0
-4 -32 -39 -42 -115 -127 -132 -184 -189 -201 -240 -254 -302 -320 -333 -340 -353 -371 -419 -433 0
-4 -32 -39 -42 -115 -127 -132 -184 -189 -201 -235 -261 -302 -320 -328 -345 -353 -371 -412 -438 0
-4 -32 -38 -43 -115 -126 -133 -183 -190 -201 -239 -255 -302 -320 -332 -341 -353 -371 -418 -434 0
-4 -32 -38 -43 -115 -126 -133 -183 -190 -201 -236 -260 -302 -320 -329 -344 -353 -371 -413 -437 0
-3 -50 -77 -78 -85 -102 -103 -182 -183 -210 -245 -252 -277 -286 -291 -382 -387 -396 -421 -428 0
-3 -50 -77 -78 -85 -102 -103 -182 -183 -210 -242 -255 -280 -286 -291 -382 -387 -393 -418 -431 0
-3 -50 -76 -79 -85 -101 -104 -181 -184 -210 -244 -253 -278 -286 -291 -382 -387 -395 -420 -429 0
-3 -50 -76 -79 -85 -101 -104 -181 -184 -210 -243 -254 -279 -286 -291 -382 -387 -394 -419 -430 0
-3 -29 -46 -47 -106 -133 -134 -182 -183 -210 -245 -252 -312 -317 -326 -347 -356 -361 -421 -428 0
-3 -29 -46 -47 -106 -133 -134 -182 -183 -210 -242 -255 -312 -317 -323 -350 -356 -361 -418 -431 0
-3 -29 -45 -48 -106 -132 -135 -181 -184 -210 -244 -253 -312 -317 -325 -348 -356 -361 -420 -429 0
-3 -29 -45 -48 -106 -132 -135 -181 -184 -210 -243 -254 -312 -317 -324 -349 -356 -361 -419 -430 0
-2 -50 -71 -72 -86 -102 -103 -188 -189 -210 -245 -258 -277 -292 -297 -376 -381 -396 -415 -428 0
-2 -50 -71 -72 -86 -102 -103 -188 -189 -210 -242 -261 -280 -292 -297 -376 -381 -393 -412 -431 0
-2 -50 -70 -73 -86 -101 -104 -187 -190 -210 -244 -259 -278 -292 -297 -376 -381 -395 -414 -429 0
-2 -50 -70 -73 -86 -101 -104 -187 -190 -210 -243 -260 -279 -292 -297 -376 -381 -394 -413 -430 0
-2 -30 -46 -47 -106 -127 -128 -188 -189 -210 -245 -258 -306 -311 -326 -347 -362 -367 -415 -428 0
-2 -30 -46 -47 -106 -127 -128 -188 -189 -210 -242 -261 -306 -311 -323 -350 -362 -367 -412 -431 0
-2 -30 -45 -48 -106 -126 -129 -187 -190 -210 -244 -259 -306 -311 -325 -348 -362 -367 -414 -429 0
-2 -30 -45 -48 -106 -126 -129 -187 -190 -210 -243 -260 -306 -311 -324 -349 -362 -367 -413 -430 0
-1 -54 -56 -60 -95 -97 -101 -200 -204 -206 -254 -259 -284 -286 -301 -372 -387 -389 -414 -419 0
-1 -54 -56 -60 -95 -97 -101 -200 -204 -206 -254 -259 -282 -297 -299 -374 -376 -391 -414 -419 0
-1 -54 -55 -62 -95 -96 -103 -198 -205 -206 -252 -261 -284 -286 -300 -373 -387 -389 -412 -421 0
-1 -54 -55 -62 -95 -96 -103 -198 -205 -206 -252 -261 -283 -297 -299 -374 -376 -390 -412 -421 0
-1 -53 -56 -61 -94 -97 -102 -199 -204 -207 -255 -258 -285 -286 -301 -372 -387 -388 -415 -418 0
-1 -53 -56 -61 -94 -97 -102 -199 -204 -207 -255 -258 -282 -297 -298 -375 -376 -391 -415 -418 0
-1 -53 -55 -63 -94 -96 -104 -197 -205 -207 -253 -260 -285 -286 -300 -373 -387 -388 -413 -420 0
-1 -53 -55 -63 -94 -96 -104 -197 -205 -207 -253 -260 -283 -297 -298 -375 -376 -390 -413 -420 0
-1 -52 -58 -60 -93 -99 -101 -200 -202 -208 -253 -260 -284 -292 -301 -372 -381 -389 -413 -420 0
-1 -52 -58 -60 -93 -99 -101 -200 -202 -208 -253 -260 -282 -291 -299 -374 -382 -391 -413 -420 0
-1 -52 -57 -61 -93 -98 -102 -199 -203 -208 -252 -261 -285 -292 -301 -372 -381 -388 -412 -421 0
-1 -52 -57 -61 -93 -98 -102 -199 -203 -208 -252 -261 -282 -291 -298 -375 -382 -391 -412 -421 0
-1 -51 -58 -62 -92 -99 -103 -198 -202 -209 -255 -258 -284 -292 -300 -373 -381 -389 -415 -418 0
-1 -51 -58 -62 -92 -99 -103 -198 -202 -209 -255 -258 -283 -291 -299 -374 -382 -390 -415 -418 0
-1 -51 -57 -63 -92 -98 -104 -197 -203 -209 -254 -259 -285 -292 -300 -373 -381 -388 -414 -419 0
-1 -51 -57 -63 -92 -98 -104 -197 -203 -209 -254 -259 -283 -291 -298 -375 -382 -390 -414 -419 0
-1 -39 -41 -45 -110 -112 -116 -200 -204 -206 -254 -259 -304 -306 -321 -352 -367 -369 -414 -419 0
-1 -39 -41 -45 -110 -112 -116 -200 -204 -206 -254 -259 -302 -317 -319 -354 -356 -371 -414 -419 0
-1 -39 -40 -47 -110 -111 -118 -198 -205 -206 -252 -261 -304 -306 -320 -353 -367 -369 -412 -421 0
-1 -39 -40 -47 -110 -111 -118 -198 -205 -206 -252 -261 -303 -317 -319 -354 -356 -370 -412 -421 0
-1 -38 -41 -46 -109 -112 -117 -199 -204 -207 -255 -258 -305 -306 -321 -352 -367 -368 -415 -418 0
-1 -38 -41 -46 -109 -112 -117 -199 -204 -207 -255 -258 -302 -317 -318 -355 -356 -371 -415 -418 0
-1 -38 -40 -48 -109 -111 -119 -197 -205 -207 -253 -260 -305 -306 -320 -353 -367 -368 -413 -420 0
-1 -38 -40 -48 -109 -111 -119 -197 -205 -207 -253 -260 -303 -317 -318 -355 -356 -370 -413 -420 0
-1 -37 -43 -45 -108 -114 -116 -200 -202 -208 -253 -260 -304 -312 -321 -352 -361 -369 -413 -420 0
-1 -37 -43 -45 -108 -114 -116 -200 -202 -208 -253 -260 -302 -311 -319 -354 -362 -371 -413 -420 0
-1 -37 -42 -46 -108 -113 -117 -199 -203 -208 -252 -261 -305 -312 -321 -352 -361 -368 -412 -421 0
-1 -37 -42 -46 -108 -113 -117 -199 -203 -208 -252 -261 -302 -311 -318 -355 -362 -371 -412 -421 0
-1 -36 -43 -47 -107 -114 -118 -198 -202 -209 -255 -258 -304 -312 -320 -353 -361 -369 -415 -418 0
-1 -36 -43 -47 -107 -114 -118 -198 -202 -209 -255 -258 -303 -311 -319 -354 -362 -370 -415 -418 0
-1 -36 -42 -48 -107 -113 -119 -197 -203 -209 -254 -259 -305 -312 -320 -353 -361 -368 -414 -419 0
-1 -36 -42 -48 -107 -113 -119 -197 -203 -209 -254 -259 -303 -311 -318 -355 -362 -370 -414 -419 0
